0 0 0 0
0 1 0 14
0 2 0 0
0 3 1 2
0 4 2 4
0 5 2 7
0 6 1 13
0 7 1 4
0 8 0 10
0 9 0 17
0 10 2 10
0 11 2 20
0 12 1 22
0 13 1 25
0 14 0 30
0 15 0 26
0 16 0 17
0 17 0 25
0 18 0 29
0 19 1 30
0 20 1 20
0 21 0 31
0 22 2 16
0 23 0 34
0 24 0 42
0 25 0 44
0 26 0 22
0 27 0 34
0 28 2 31
0 29 1 44
0 30 0 48
0 31 0 51
